269,107
644,169
542,-21
998,-30
1095,471
871,596
1184,327
945,42
681,136
681,166
368,507
415,599
977,110
593,527
427,660
417,770
351,406
334,229
795,443
765,490
681,526
802,494
921,406
894,298
787,512
681,466
736,577
531,406
504,378
533,258
639,140
681,676
885,806
366,635
